TCS_Benchmarks/redos_fix/corpus1_output_distinct_935_934_0_0.txt
.*
(.*)((NONRPM_DB_PREFIX="\$HOME\/)intel)(.*)
.*